MST03
Position Depot: Random
Horizon for Depot: Small
Position of customers: Mixt
Distribution of the demand: Small
Width of time windows: Tight
Distribution of the service: Large

VEHICLE 
NUMBER 	 CAPACITY 
 8 	 	 47 
 
CUSTOMER
CUST NO. 	 XCOORD.  	 YCOORD. 	 DEMAND 	 READY TIME 	 DUE DATE 	 SERVICE TIME 
 0 	 	 757 	 	 445 	 	 0 	 	 0 	 	 2063 	 	 0 
  1 	 	 661 	 	 297 	 	 7 	 	 1293 	 	 1364 	 	 115 
  2 	 	 202 	 	 524 	 	 5 	 	 1145 	 	 1310 	 	 170 
  3 	 	 765 	 	 223 	 	 8 	 	 58 	 	 244 	 	 177 
  4 	 	 778 	 	 139 	 	 8 	 	 559 	 	 632 	 	 196 
  5 	 	 257 	 	 543 	 	 10 	 	 624 	 	 698 	 	 193 
  6 	 	 814 	 	 203 	 	 10 	 	 601 	 	 801 	 	 131 
  7 	 	 231 	 	 432 	 	 9 	 	 1844 	 	 2044 	 	 191 
  8 	 	 742 	 	 151 	 	 9 	 	 262 	 	 323 	 	 181 
  9 	 	 571 	 	 318 	 	 8 	 	 1903 	 	 2024 	 	 190 
  10 	 	 700 	 	 300 	 	 6 	 	 1387 	 	 1564 	 	 153 
  11 	 	 127 	 	 555 	 	 8 	 	 1783 	 	 1862 	 	 131 
  12 	 	 812 	 	 246 	 	 10 	 	 1883 	 	 2044 	 	 154 
  13 	 	 649 	 	 329 	 	 6 	 	 64 	 	 233 	 	 172 
  14 	 	 794 	 	 530 	 	 9 	 	 510 	 	 578 	 	 196 
  15 	 	 764 	 	 207 	 	 6 	 	 1584 	 	 1664 	 	 158 
  16 	 	 151 	 	 517 	 	 8 	 	 560 	 	 671 	 	 172 
  17 	 	 793 	 	 277 	 	 8 	 	 947 	 	 999 	 	 179 
  18 	 	 610 	 	 296 	 	 6 	 	 551 	 	 642 	 	 192 
  19 	 	 667 	 	 290 	 	 7 	 	 1596 	 	 1683 	 	 133 
  20 	 	 692 	 	 255 	 	 8 	 	 1381 	 	 1542 	 	 143 
  21 	 	 247 	 	 504 	 	 6 	 	 1814 	 	 1953 	 	 191 
  22 	 	 680 	 	 224 	 	 9 	 	 85 	 	 257 	 	 189 
  23 	 	 152 	 	 648 	 	 8 	 	 1752 	 	 1869 	 	 129 
  24 	 	 759 	 	 330 	 	 9 	 	 1303 	 	 1465 	 	 183 
  25 	 	 782 	 	 189 	 	 8 	 	 918 	 	 1021 	 	 182 
  26 	 	 521 	 	 802 	 	 8 	 	 1106 	 	 1279 	 	 150 
  27 	 	 90 	 	 470 	 	 5 	 	 1206 	 	 1406 	 	 111 
  28 	 	 770 	 	 139 	 	 6 	 	 1623 	 	 1720 	 	 145 
  29 	 	 14 	 	 569 	 	 7 	 	 795 	 	 987 	 	 149 
  30 	 	 126 	 	 938 	 	 9 	 	 1150 	 	 1350 	 	 189 
  31 	 	 570 	 	 586 	 	 6 	 	 1765 	 	 1958 	 	 144 
  32 	 	 959 	 	 696 	 	 10 	 	 1492 	 	 1603 	 	 199 
  33 	 	 323 	 	 242 	 	 10 	 	 1951 	 	 2063 	 	 198 
  34 	 	 854 	 	 57 	 	 9 	 	 775 	 	 886 	 	 163 
  35 	 	 588 	 	 880 	 	 7 	 	 317 	 	 513 	 	 190 
  36 	 	 251 	 	 737 	 	 8 	 	 890 	 	 1086 	 	 167 
  37 	 	 438 	 	 678 	 	 6 	 	 281 	 	 434 	 	 161 
  38 	 	 416 	 	 836 	 	 5 	 	 1416 	 	 1534 	 	 140 
  39 	 	 771 	 	 866 	 	 7 	 	 479 	 	 551 	 	 185 
  40 	 	 761 	 	 320 	 	 7 	 	 375 	 	 534 	 	 136 
  41 	 	 887 	 	 1000 	 	 6 	 	 1501 	 	 1646 	 	 132 
  42 	 	 560 	 	 625 	 	 7 	 	 1276 	 	 1408 	 	 186 
  43 	 	 374 	 	 72 	 	 9 	 	 1075 	 	 1218 	 	 128 
  44 	 	 472 	 	 133 	 	 8 	 	 1289 	 	 1399 	 	 112 
  45 	 	 392 	 	 368 	 	 8 	 	 1063 	 	 1189 	 	 191 
  46 	 	 81 	 	 857 	 	 6 	 	 815 	 	 870 	 	 134 
  47 	 	 18 	 	 695 	 	 10 	 	 720 	 	 858 	 	 108 
  48 	 	 856 	 	 368 	 	 9 	 	 657 	 	 842 	 	 107 
  49 	 	 876 	 	 799 	 	 10 	 	 691 	 	 760 	 	 141 
  50 	 	 907 	 	 481 	 	 7 	 	 939 	 	 1124 	 	 185 
 